(set-info :smt-lib-version 2.6)
(set-logic QF_NIA)
(set-info :source |
Generated by: Cristina Borralleras, Daniel Larraz, Albert Oliveras, Enric Rodriguez-Carbonell, Albert Rubio
Generated on: 2017-04-27
Generator: VeryMax
Application: Termination proving
Target solver: barcelogic
|)
(set-info :license "https://creativecommons.org/licenses/by/4.0/")
(set-info :category "industrial")
(set-info :status sat)
(declare-fun Nl3Pdolen^01 () Int)
(declare-fun Nl3i^01 () Int)
(declare-fun Nl3num^01 () Int)
(declare-fun Nl3Pdolen^02 () Int)
(declare-fun Nl3i^02 () Int)
(declare-fun Nl3num^02 () Int)
(declare-fun Nl3Pdolen^03 () Int)
(declare-fun Nl3i^03 () Int)
(declare-fun Nl3num^03 () Int)
(declare-fun lam0n0 () Int)
(declare-fun lam0n1 () Int)
(declare-fun lam0n2 () Int)
(declare-fun lam0n3 () Int)
(declare-fun lam0n4 () Int)
(declare-fun lam0n5 () Int)
(declare-fun lam0n6 () Int)
(declare-fun UndefCntr0_CT () Int)
(declare-fun Nl3CT1 () Int)
(declare-fun Nl3CT2 () Int)
(declare-fun Nl3CT3 () Int)
(declare-fun UndefCntr0_Pdolen^0 () Int)
(declare-fun UndefCntr0_i^0 () Int)
(declare-fun UndefCntr0_num^0 () Int)
(declare-fun UndefCntr0_undef77 () Int)
(declare-fun UndefCntr0_undef91 () Int)
(declare-fun lam1n0 () Int)
(declare-fun lam1n1 () Int)
(declare-fun lam1n2 () Int)
(declare-fun lam1n3 () Int)
(declare-fun lam1n4 () Int)
(declare-fun lam1n5 () Int)
(declare-fun lam1n6 () Int)
(declare-fun lam2n0 () Int)
(declare-fun lam2n1 () Int)
(declare-fun lam2n2 () Int)
(declare-fun lam2n3 () Int)
(declare-fun lam2n4 () Int)
(declare-fun lam2n5 () Int)
(declare-fun lam2n6 () Int)
(declare-fun lam3n0 () Int)
(declare-fun lam3n1 () Int)
(declare-fun lam3n2 () Int)
(declare-fun lam3n3 () Int)
(declare-fun lam3n4 () Int)
(declare-fun lam3n5 () Int)
(declare-fun lam3n6 () Int)
(declare-fun lam4n0 () Int)
(declare-fun lam4n1 () Int)
(declare-fun lam4n2 () Int)
(declare-fun lam4n3 () Int)
(declare-fun lam4n4 () Int)
(declare-fun lam4n5 () Int)
(declare-fun lam4n6 () Int)
(declare-fun lam4n7 () Int)
(declare-fun UndefCntr1_CT () Int)
(declare-fun UndefCntr1_Pdolen^0 () Int)
(declare-fun UndefCntr1_i^0 () Int)
(declare-fun UndefCntr1_num^0 () Int)
(declare-fun UndefCntr1_undef37 () Int)
(declare-fun UndefCntr1_undef77 () Int)
(declare-fun UndefCntr1_undef91 () Int)
(declare-fun lam5n0 () Int)
(declare-fun lam5n1 () Int)
(declare-fun lam5n2 () Int)
(declare-fun lam5n3 () Int)
(declare-fun lam5n4 () Int)
(declare-fun lam5n5 () Int)
(declare-fun lam5n6 () Int)
(declare-fun lam5n7 () Int)
(declare-fun lam6n0 () Int)
(declare-fun lam6n1 () Int)
(declare-fun lam6n2 () Int)
(declare-fun lam6n3 () Int)
(declare-fun lam6n4 () Int)
(declare-fun lam6n5 () Int)
(declare-fun lam6n6 () Int)
(declare-fun lam6n7 () Int)
(declare-fun lam7n0 () Int)
(declare-fun lam7n1 () Int)
(declare-fun lam7n2 () Int)
(declare-fun lam7n3 () Int)
(declare-fun lam7n4 () Int)
(declare-fun lam7n5 () Int)
(declare-fun lam7n6 () Int)
(declare-fun lam7n7 () Int)
(declare-fun lam8n0 () Int)
(declare-fun lam8n1 () Int)
(declare-fun lam9n0 () Int)
(declare-fun lam9n1 () Int)
(declare-fun lam10n0 () Int)
(declare-fun lam10n1 () Int)
(declare-fun Pdolen^0 () Int)
(declare-fun undef106 () Int)
(declare-fun i^0 () Int)
(declare-fun undef108 () Int)
(declare-fun num^0 () Int)
(declare-fun FV_Pdolen^0_2 () Int)
(declare-fun FV_i^0_2 () Int)
(declare-fun FV_num^0_2 () Int)
(declare-fun FV_undef77_0 () Int)
(declare-fun FV_undef91_0 () Int)
(declare-fun FV_Pdolen^0_0 () Int)
(declare-fun FV_i^0_0 () Int)
(declare-fun FV_num^0_0 () Int)
(declare-fun FV_undef77_1 () Int)
(declare-fun FV_undef91_1 () Int)
(declare-fun FV_undef37_1 () Int)
(declare-fun FV_Pdolen^0_1 () Int)
(declare-fun FV_i^0_1 () Int)
(declare-fun FV_num^0_1 () Int)
(declare-fun lam11n0 () Int)
(declare-fun lam11n1 () Int)
(declare-fun lam11n2 () Int)
(declare-fun lam11n3 () Int)
(declare-fun FV_Pdolen^0_3 () Int)
(declare-fun FV_i^0_3 () Int)
(declare-fun FV_num^0_3 () Int)
(declare-fun FV_undef91_3 () Int)
(declare-fun FV_undef77_3 () Int)
(declare-fun FV_undef37_3 () Int)
(assert ( and ( <= ( - 1 ) Nl3Pdolen^01 ) ( <= Nl3Pdolen^01 1 ) ( <= ( - 1 ) Nl3i^01 ) ( <= Nl3i^01 1 ) ( <= ( - 1 ) Nl3num^01 ) ( <= Nl3num^01 1 ) ( <= ( - 1 ) Nl3Pdolen^02 ) ( <= Nl3Pdolen^02 1 ) ( <= ( - 1 ) Nl3i^02 ) ( <= Nl3i^02 1 ) ( <= ( - 1 ) Nl3num^02 ) ( <= Nl3num^02 1 ) ( <= ( - 1 ) Nl3Pdolen^03 ) ( <= Nl3Pdolen^03 1 ) ( <= ( - 1 ) Nl3i^03 ) ( <= Nl3i^03 1 ) ( <= ( - 1 ) Nl3num^03 ) ( <= Nl3num^03 1 ) ))
(assert ( or ( and ( >= lam0n0 0 ) ( >= lam0n1 0 ) ( >= lam0n2 0 ) ( >= lam0n3 0 ) ( >= lam0n4 0 ) ( >= lam0n5 0 ) ( >= lam0n6 0 ) ( > ( + ( * 1 lam0n0 ) ( * 1 lam0n1 ) ( * ( - 1 ) lam0n2 ) ( * UndefCntr0_CT lam0n3 ) ( * Nl3CT1 lam0n4 ) ( * Nl3CT2 lam0n5 ) ( * Nl3CT3 lam0n6 ) ( - 1 ) ) 0 ) ( = ( + ( * ( - 1 ) lam0n0 ) ( * UndefCntr0_Pdolen^0 lam0n3 ) ( * Nl3Pdolen^01 lam0n4 ) ( * Nl3Pdolen^02 lam0n5 ) ( * Nl3Pdolen^03 lam0n6 ) ) 0 ) ( = ( + ( * 1 lam0n0 ) ( * UndefCntr0_i^0 lam0n3 ) ( * Nl3i^01 lam0n4 ) ( * Nl3i^02 lam0n5 ) ( * Nl3i^03 lam0n6 ) ) 0 ) ( = ( + ( * UndefCntr0_num^0 lam0n3 ) ( * Nl3num^01 lam0n4 ) ( * Nl3num^02 lam0n5 ) ( * Nl3num^03 lam0n6 ) ) 0 ) ( = ( + ( * 1 lam0n2 ) ( * UndefCntr0_undef77 lam0n3 ) ) 0 ) ( = ( + ( * ( - 1 ) lam0n1 ) ( * UndefCntr0_undef91 lam0n3 ) ) 0 ) ) ( and ( >= lam1n0 0 ) ( >= lam1n1 0 ) ( >= lam1n2 0 ) ( >= lam1n3 0 ) ( >= lam1n4 0 ) ( >= lam1n5 0 ) ( >= lam1n6 0 ) ( > ( + ( * 1 lam1n0 ) ( * 1 lam1n1 ) ( * ( - 1 ) lam1n2 ) ( * UndefCntr0_CT lam1n3 ) ( * Nl3CT1 lam1n4 ) ( * Nl3CT2 lam1n5 ) ( * Nl3CT3 lam1n6 ) ( - 1 ( + Nl3CT1 ( * Nl3i^01 1 ) ) ) ) 0 ) ( = ( + ( * ( - 1 ) lam1n0 ) ( * UndefCntr0_Pdolen^0 lam1n3 ) ( * Nl3Pdolen^01 lam1n4 ) ( * Nl3Pdolen^02 lam1n5 ) ( * Nl3Pdolen^03 lam1n6 ) ( - ( + 0 Nl3Pdolen^01 ) ) ) 0 ) ( = ( + ( * 1 lam1n0 ) ( * UndefCntr0_i^0 lam1n3 ) ( * Nl3i^01 lam1n4 ) ( * Nl3i^02 lam1n5 ) ( * Nl3i^03 lam1n6 ) ( - ( + 0 ( * Nl3i^01 1 ) ) ) ) 0 ) ( = ( + ( * UndefCntr0_num^0 lam1n3 ) ( * Nl3num^01 lam1n4 ) ( * Nl3num^02 lam1n5 ) ( * Nl3num^03 lam1n6 ) ( - ( + 0 Nl3num^01 ) ) ) 0 ) ( = ( + ( * 1 lam1n2 ) ( * UndefCntr0_undef77 lam1n3 ) ) 0 ) ( = ( + ( * ( - 1 ) lam1n1 ) ( * UndefCntr0_undef91 lam1n3 ) ) 0 ) ) ))
(assert ( or ( and ( >= lam0n0 0 ) ( >= lam0n1 0 ) ( >= lam0n2 0 ) ( >= lam0n3 0 ) ( >= lam0n4 0 ) ( >= lam0n5 0 ) ( >= lam0n6 0 ) ( > ( + ( * 1 lam0n0 ) ( * 1 lam0n1 ) ( * ( - 1 ) lam0n2 ) ( * UndefCntr0_CT lam0n3 ) ( * Nl3CT1 lam0n4 ) ( * Nl3CT2 lam0n5 ) ( * Nl3CT3 lam0n6 ) ( - 1 ) ) 0 ) ( = ( + ( * ( - 1 ) lam0n0 ) ( * UndefCntr0_Pdolen^0 lam0n3 ) ( * Nl3Pdolen^01 lam0n4 ) ( * Nl3Pdolen^02 lam0n5 ) ( * Nl3Pdolen^03 lam0n6 ) ) 0 ) ( = ( + ( * 1 lam0n0 ) ( * UndefCntr0_i^0 lam0n3 ) ( * Nl3i^01 lam0n4 ) ( * Nl3i^02 lam0n5 ) ( * Nl3i^03 lam0n6 ) ) 0 ) ( = ( + ( * UndefCntr0_num^0 lam0n3 ) ( * Nl3num^01 lam0n4 ) ( * Nl3num^02 lam0n5 ) ( * Nl3num^03 lam0n6 ) ) 0 ) ( = ( + ( * 1 lam0n2 ) ( * UndefCntr0_undef77 lam0n3 ) ) 0 ) ( = ( + ( * ( - 1 ) lam0n1 ) ( * UndefCntr0_undef91 lam0n3 ) ) 0 ) ) ( and ( >= lam2n0 0 ) ( >= lam2n1 0 ) ( >= lam2n2 0 ) ( >= lam2n3 0 ) ( >= lam2n4 0 ) ( >= lam2n5 0 ) ( >= lam2n6 0 ) ( > ( + ( * 1 lam2n0 ) ( * 1 lam2n1 ) ( * ( - 1 ) lam2n2 ) ( * UndefCntr0_CT lam2n3 ) ( * Nl3CT1 lam2n4 ) ( * Nl3CT2 lam2n5 ) ( * Nl3CT3 lam2n6 ) ( - 1 ( + Nl3CT2 ( * Nl3i^02 1 ) ) ) ) 0 ) ( = ( + ( * ( - 1 ) lam2n0 ) ( * UndefCntr0_Pdolen^0 lam2n3 ) ( * Nl3Pdolen^01 lam2n4 ) ( * Nl3Pdolen^02 lam2n5 ) ( * Nl3Pdolen^03 lam2n6 ) ( - ( + 0 Nl3Pdolen^02 ) ) ) 0 ) ( = ( + ( * 1 lam2n0 ) ( * UndefCntr0_i^0 lam2n3 ) ( * Nl3i^01 lam2n4 ) ( * Nl3i^02 lam2n5 ) ( * Nl3i^03 lam2n6 ) ( - ( + 0 ( * Nl3i^02 1 ) ) ) ) 0 ) ( = ( + ( * UndefCntr0_num^0 lam2n3 ) ( * Nl3num^01 lam2n4 ) ( * Nl3num^02 lam2n5 ) ( * Nl3num^03 lam2n6 ) ( - ( + 0 Nl3num^02 ) ) ) 0 ) ( = ( + ( * 1 lam2n2 ) ( * UndefCntr0_undef77 lam2n3 ) ) 0 ) ( = ( + ( * ( - 1 ) lam2n1 ) ( * UndefCntr0_undef91 lam2n3 ) ) 0 ) ) ))
(assert ( or ( and ( >= lam0n0 0 ) ( >= lam0n1 0 ) ( >= lam0n2 0 ) ( >= lam0n3 0 ) ( >= lam0n4 0 ) ( >= lam0n5 0 ) ( >= lam0n6 0 ) ( > ( + ( * 1 lam0n0 ) ( * 1 lam0n1 ) ( * ( - 1 ) lam0n2 ) ( * UndefCntr0_CT lam0n3 ) ( * Nl3CT1 lam0n4 ) ( * Nl3CT2 lam0n5 ) ( * Nl3CT3 lam0n6 ) ( - 1 ) ) 0 ) ( = ( + ( * ( - 1 ) lam0n0 ) ( * UndefCntr0_Pdolen^0 lam0n3 ) ( * Nl3Pdolen^01 lam0n4 ) ( * Nl3Pdolen^02 lam0n5 ) ( * Nl3Pdolen^03 lam0n6 ) ) 0 ) ( = ( + ( * 1 lam0n0 ) ( * UndefCntr0_i^0 lam0n3 ) ( * Nl3i^01 lam0n4 ) ( * Nl3i^02 lam0n5 ) ( * Nl3i^03 lam0n6 ) ) 0 ) ( = ( + ( * UndefCntr0_num^0 lam0n3 ) ( * Nl3num^01 lam0n4 ) ( * Nl3num^02 lam0n5 ) ( * Nl3num^03 lam0n6 ) ) 0 ) ( = ( + ( * 1 lam0n2 ) ( * UndefCntr0_undef77 lam0n3 ) ) 0 ) ( = ( + ( * ( - 1 ) lam0n1 ) ( * UndefCntr0_undef91 lam0n3 ) ) 0 ) ) ( and ( >= lam3n0 0 ) ( >= lam3n1 0 ) ( >= lam3n2 0 ) ( >= lam3n3 0 ) ( >= lam3n4 0 ) ( >= lam3n5 0 ) ( >= lam3n6 0 ) ( > ( + ( * 1 lam3n0 ) ( * 1 lam3n1 ) ( * ( - 1 ) lam3n2 ) ( * UndefCntr0_CT lam3n3 ) ( * Nl3CT1 lam3n4 ) ( * Nl3CT2 lam3n5 ) ( * Nl3CT3 lam3n6 ) ( - 1 ( + Nl3CT3 ( * Nl3i^03 1 ) ) ) ) 0 ) ( = ( + ( * ( - 1 ) lam3n0 ) ( * UndefCntr0_Pdolen^0 lam3n3 ) ( * Nl3Pdolen^01 lam3n4 ) ( * Nl3Pdolen^02 lam3n5 ) ( * Nl3Pdolen^03 lam3n6 ) ( - ( + 0 Nl3Pdolen^03 ) ) ) 0 ) ( = ( + ( * 1 lam3n0 ) ( * UndefCntr0_i^0 lam3n3 ) ( * Nl3i^01 lam3n4 ) ( * Nl3i^02 lam3n5 ) ( * Nl3i^03 lam3n6 ) ( - ( + 0 ( * Nl3i^03 1 ) ) ) ) 0 ) ( = ( + ( * UndefCntr0_num^0 lam3n3 ) ( * Nl3num^01 lam3n4 ) ( * Nl3num^02 lam3n5 ) ( * Nl3num^03 lam3n6 ) ( - ( + 0 Nl3num^03 ) ) ) 0 ) ( = ( + ( * 1 lam3n2 ) ( * UndefCntr0_undef77 lam3n3 ) ) 0 ) ( = ( + ( * ( - 1 ) lam3n1 ) ( * UndefCntr0_undef91 lam3n3 ) ) 0 ) ) ))
(assert ( or ( and ( >= lam4n0 0 ) ( >= lam4n1 0 ) ( >= lam4n2 0 ) ( >= lam4n3 0 ) ( >= lam4n4 0 ) ( >= lam4n5 0 ) ( >= lam4n6 0 ) ( >= lam4n7 0 ) ( > ( + ( * 1 lam4n0 ) ( * 1 lam4n1 ) ( * 2 lam4n2 ) ( * 2 lam4n3 ) ( * UndefCntr1_CT lam4n4 ) ( * Nl3CT1 lam4n5 ) ( * Nl3CT2 lam4n6 ) ( * Nl3CT3 lam4n7 ) ( - 1 ) ) 0 ) ( = ( + ( * ( - 1 ) lam4n0 ) ( * UndefCntr1_Pdolen^0 lam4n4 ) ( * Nl3Pdolen^01 lam4n5 ) ( * Nl3Pdolen^02 lam4n6 ) ( * Nl3Pdolen^03 lam4n7 ) ) 0 ) ( = ( + ( * 1 lam4n0 ) ( * UndefCntr1_i^0 lam4n4 ) ( * Nl3i^01 lam4n5 ) ( * Nl3i^02 lam4n6 ) ( * Nl3i^03 lam4n7 ) ) 0 ) ( = ( + ( * UndefCntr1_num^0 lam4n4 ) ( * Nl3num^01 lam4n5 ) ( * Nl3num^02 lam4n6 ) ( * Nl3num^03 lam4n7 ) ) 0 ) ( = ( + ( * ( - 1 ) lam4n2 ) ( * UndefCntr1_undef37 lam4n4 ) ) 0 ) ( = ( + ( * ( - 1 ) lam4n3 ) ( * UndefCntr1_undef77 lam4n4 ) ) 0 ) ( = ( + ( * ( - 1 ) lam4n1 ) ( * UndefCntr1_undef91 lam4n4 ) ) 0 ) ) ( and ( >= lam5n0 0 ) ( >= lam5n1 0 ) ( >= lam5n2 0 ) ( >= lam5n3 0 ) ( >= lam5n4 0 ) ( >= lam5n5 0 ) ( >= lam5n6 0 ) ( >= lam5n7 0 ) ( > ( + ( * 1 lam5n0 ) ( * 1 lam5n1 ) ( * 2 lam5n2 ) ( * 2 lam5n3 ) ( * UndefCntr1_CT lam5n4 ) ( * Nl3CT1 lam5n5 ) ( * Nl3CT2 lam5n6 ) ( * Nl3CT3 lam5n7 ) ( - 1 ( + Nl3CT1 ( * Nl3num^01 1 ) ) ) ) 0 ) ( = ( + ( * ( - 1 ) lam5n0 ) ( * UndefCntr1_Pdolen^0 lam5n4 ) ( * Nl3Pdolen^01 lam5n5 ) ( * Nl3Pdolen^02 lam5n6 ) ( * Nl3Pdolen^03 lam5n7 ) ( - ( + 0 Nl3Pdolen^01 ) ) ) 0 ) ( = ( + ( * 1 lam5n0 ) ( * UndefCntr1_i^0 lam5n4 ) ( * Nl3i^01 lam5n5 ) ( * Nl3i^02 lam5n6 ) ( * Nl3i^03 lam5n7 ) ( - ( + 0 Nl3i^01 ) ) ) 0 ) ( = ( + ( * UndefCntr1_num^0 lam5n4 ) ( * Nl3num^01 lam5n5 ) ( * Nl3num^02 lam5n6 ) ( * Nl3num^03 lam5n7 ) ( - ( + 0 ( * Nl3num^01 1 ) ) ) ) 0 ) ( = ( + ( * ( - 1 ) lam5n2 ) ( * UndefCntr1_undef37 lam5n4 ) ) 0 ) ( = ( + ( * ( - 1 ) lam5n3 ) ( * UndefCntr1_undef77 lam5n4 ) ) 0 ) ( = ( + ( * ( - 1 ) lam5n1 ) ( * UndefCntr1_undef91 lam5n4 ) ) 0 ) ) ))
(assert ( or ( and ( >= lam4n0 0 ) ( >= lam4n1 0 ) ( >= lam4n2 0 ) ( >= lam4n3 0 ) ( >= lam4n4 0 ) ( >= lam4n5 0 ) ( >= lam4n6 0 ) ( >= lam4n7 0 ) ( > ( + ( * 1 lam4n0 ) ( * 1 lam4n1 ) ( * 2 lam4n2 ) ( * 2 lam4n3 ) ( * UndefCntr1_CT lam4n4 ) ( * Nl3CT1 lam4n5 ) ( * Nl3CT2 lam4n6 ) ( * Nl3CT3 lam4n7 ) ( - 1 ) ) 0 ) ( = ( + ( * ( - 1 ) lam4n0 ) ( * UndefCntr1_Pdolen^0 lam4n4 ) ( * Nl3Pdolen^01 lam4n5 ) ( * Nl3Pdolen^02 lam4n6 ) ( * Nl3Pdolen^03 lam4n7 ) ) 0 ) ( = ( + ( * 1 lam4n0 ) ( * UndefCntr1_i^0 lam4n4 ) ( * Nl3i^01 lam4n5 ) ( * Nl3i^02 lam4n6 ) ( * Nl3i^03 lam4n7 ) ) 0 ) ( = ( + ( * UndefCntr1_num^0 lam4n4 ) ( * Nl3num^01 lam4n5 ) ( * Nl3num^02 lam4n6 ) ( * Nl3num^03 lam4n7 ) ) 0 ) ( = ( + ( * ( - 1 ) lam4n2 ) ( * UndefCntr1_undef37 lam4n4 ) ) 0 ) ( = ( + ( * ( - 1 ) lam4n3 ) ( * UndefCntr1_undef77 lam4n4 ) ) 0 ) ( = ( + ( * ( - 1 ) lam4n1 ) ( * UndefCntr1_undef91 lam4n4 ) ) 0 ) ) ( and ( >= lam6n0 0 ) ( >= lam6n1 0 ) ( >= lam6n2 0 ) ( >= lam6n3 0 ) ( >= lam6n4 0 ) ( >= lam6n5 0 ) ( >= lam6n6 0 ) ( >= lam6n7 0 ) ( > ( + ( * 1 lam6n0 ) ( * 1 lam6n1 ) ( * 2 lam6n2 ) ( * 2 lam6n3 ) ( * UndefCntr1_CT lam6n4 ) ( * Nl3CT1 lam6n5 ) ( * Nl3CT2 lam6n6 ) ( * Nl3CT3 lam6n7 ) ( - 1 ( + Nl3CT2 ( * Nl3num^02 1 ) ) ) ) 0 ) ( = ( + ( * ( - 1 ) lam6n0 ) ( * UndefCntr1_Pdolen^0 lam6n4 ) ( * Nl3Pdolen^01 lam6n5 ) ( * Nl3Pdolen^02 lam6n6 ) ( * Nl3Pdolen^03 lam6n7 ) ( - ( + 0 Nl3Pdolen^02 ) ) ) 0 ) ( = ( + ( * 1 lam6n0 ) ( * UndefCntr1_i^0 lam6n4 ) ( * Nl3i^01 lam6n5 ) ( * Nl3i^02 lam6n6 ) ( * Nl3i^03 lam6n7 ) ( - ( + 0 Nl3i^02 ) ) ) 0 ) ( = ( + ( * UndefCntr1_num^0 lam6n4 ) ( * Nl3num^01 lam6n5 ) ( * Nl3num^02 lam6n6 ) ( * Nl3num^03 lam6n7 ) ( - ( + 0 ( * Nl3num^02 1 ) ) ) ) 0 ) ( = ( + ( * ( - 1 ) lam6n2 ) ( * UndefCntr1_undef37 lam6n4 ) ) 0 ) ( = ( + ( * ( - 1 ) lam6n3 ) ( * UndefCntr1_undef77 lam6n4 ) ) 0 ) ( = ( + ( * ( - 1 ) lam6n1 ) ( * UndefCntr1_undef91 lam6n4 ) ) 0 ) ) ))
(assert ( or ( and ( >= lam4n0 0 ) ( >= lam4n1 0 ) ( >= lam4n2 0 ) ( >= lam4n3 0 ) ( >= lam4n4 0 ) ( >= lam4n5 0 ) ( >= lam4n6 0 ) ( >= lam4n7 0 ) ( > ( + ( * 1 lam4n0 ) ( * 1 lam4n1 ) ( * 2 lam4n2 ) ( * 2 lam4n3 ) ( * UndefCntr1_CT lam4n4 ) ( * Nl3CT1 lam4n5 ) ( * Nl3CT2 lam4n6 ) ( * Nl3CT3 lam4n7 ) ( - 1 ) ) 0 ) ( = ( + ( * ( - 1 ) lam4n0 ) ( * UndefCntr1_Pdolen^0 lam4n4 ) ( * Nl3Pdolen^01 lam4n5 ) ( * Nl3Pdolen^02 lam4n6 ) ( * Nl3Pdolen^03 lam4n7 ) ) 0 ) ( = ( + ( * 1 lam4n0 ) ( * UndefCntr1_i^0 lam4n4 ) ( * Nl3i^01 lam4n5 ) ( * Nl3i^02 lam4n6 ) ( * Nl3i^03 lam4n7 ) ) 0 ) ( = ( + ( * UndefCntr1_num^0 lam4n4 ) ( * Nl3num^01 lam4n5 ) ( * Nl3num^02 lam4n6 ) ( * Nl3num^03 lam4n7 ) ) 0 ) ( = ( + ( * ( - 1 ) lam4n2 ) ( * UndefCntr1_undef37 lam4n4 ) ) 0 ) ( = ( + ( * ( - 1 ) lam4n3 ) ( * UndefCntr1_undef77 lam4n4 ) ) 0 ) ( = ( + ( * ( - 1 ) lam4n1 ) ( * UndefCntr1_undef91 lam4n4 ) ) 0 ) ) ( and ( >= lam7n0 0 ) ( >= lam7n1 0 ) ( >= lam7n2 0 ) ( >= lam7n3 0 ) ( >= lam7n4 0 ) ( >= lam7n5 0 ) ( >= lam7n6 0 ) ( >= lam7n7 0 ) ( > ( + ( * 1 lam7n0 ) ( * 1 lam7n1 ) ( * 2 lam7n2 ) ( * 2 lam7n3 ) ( * UndefCntr1_CT lam7n4 ) ( * Nl3CT1 lam7n5 ) ( * Nl3CT2 lam7n6 ) ( * Nl3CT3 lam7n7 ) ( - 1 ( + Nl3CT3 ( * Nl3num^03 1 ) ) ) ) 0 ) ( = ( + ( * ( - 1 ) lam7n0 ) ( * UndefCntr1_Pdolen^0 lam7n4 ) ( * Nl3Pdolen^01 lam7n5 ) ( * Nl3Pdolen^02 lam7n6 ) ( * Nl3Pdolen^03 lam7n7 ) ( - ( + 0 Nl3Pdolen^03 ) ) ) 0 ) ( = ( + ( * 1 lam7n0 ) ( * UndefCntr1_i^0 lam7n4 ) ( * Nl3i^01 lam7n5 ) ( * Nl3i^02 lam7n6 ) ( * Nl3i^03 lam7n7 ) ( - ( + 0 Nl3i^03 ) ) ) 0 ) ( = ( + ( * UndefCntr1_num^0 lam7n4 ) ( * Nl3num^01 lam7n5 ) ( * Nl3num^02 lam7n6 ) ( * Nl3num^03 lam7n7 ) ( - ( + 0 ( * Nl3num^03 1 ) ) ) ) 0 ) ( = ( + ( * ( - 1 ) lam7n2 ) ( * UndefCntr1_undef37 lam7n4 ) ) 0 ) ( = ( + ( * ( - 1 ) lam7n3 ) ( * UndefCntr1_undef77 lam7n4 ) ) 0 ) ( = ( + ( * ( - 1 ) lam7n1 ) ( * UndefCntr1_undef91 lam7n4 ) ) 0 ) ) ))
(assert ( and ( <= ( + Nl3CT1 ( * Nl3Pdolen^01 FV_Pdolen^0_2 ) ( * Nl3i^01 FV_i^0_2 ) ( * Nl3num^01 FV_num^0_2 ) ) 0 ) ( <= ( + Nl3CT2 ( * Nl3Pdolen^02 FV_Pdolen^0_2 ) ( * Nl3i^02 FV_i^0_2 ) ( * Nl3num^02 FV_num^0_2 ) ) 0 ) ( <= ( + Nl3CT3 ( * Nl3Pdolen^03 FV_Pdolen^0_2 ) ( * Nl3i^03 FV_i^0_2 ) ( * Nl3num^03 FV_num^0_2 ) ) 0 ) ))
(assert ( or ( not ( = UndefCntr0_Pdolen^0 0 ) ) ( not ( = UndefCntr0_i^0 0 ) ) ( not ( = UndefCntr0_num^0 0 ) ) ( not ( = UndefCntr0_undef77 0 ) ) ( not ( = UndefCntr0_undef91 0 ) ) ( = UndefCntr0_CT 0 ) ))
(assert ( or ( and ( = UndefCntr0_Pdolen^0 0 ) ( = UndefCntr0_i^0 0 ) ( = UndefCntr0_num^0 0 ) ) ( or ( not ( = UndefCntr0_undef77 0 ) ) ( not ( = UndefCntr0_undef91 0 ) ) ) ))
(assert ( or ( not ( = UndefCntr1_Pdolen^0 0 ) ) ( not ( = UndefCntr1_i^0 0 ) ) ( not ( = UndefCntr1_num^0 0 ) ) ( not ( = UndefCntr1_undef37 0 ) ) ( not ( = UndefCntr1_undef77 0 ) ) ( not ( = UndefCntr1_undef91 0 ) ) ( = UndefCntr1_CT 0 ) ))
(assert ( or ( and ( = UndefCntr1_Pdolen^0 0 ) ( = UndefCntr1_i^0 0 ) ( = UndefCntr1_num^0 0 ) ) ( or ( not ( = UndefCntr1_undef37 0 ) ) ( not ( = UndefCntr1_undef77 0 ) ) ( not ( = UndefCntr1_undef91 0 ) ) ) ))
(assert ( or ( = UndefCntr0_undef77 0 ) ( and ( and ( = UndefCntr0_Pdolen^0 0 ) ( = UndefCntr0_i^0 0 ) ( = UndefCntr0_num^0 0 ) ( = UndefCntr0_undef91 0 ) ) ( or ( and ( <= ( + ( - 1 ) FV_undef77_0 ) 0 ) ( <= ( + UndefCntr0_CT ( * UndefCntr0_undef91 FV_undef91_0 ) ( * UndefCntr0_undef77 FV_undef77_0 ) ( * UndefCntr0_Pdolen^0 FV_Pdolen^0_0 ) ( * UndefCntr0_i^0 FV_i^0_0 ) ( * UndefCntr0_num^0 FV_num^0_0 ) ) 0 ) ) ( and ( and ( = UndefCntr0_undef77 UndefCntr1_undef77 ) ( = UndefCntr0_CT UndefCntr1_CT ) ) ( or ( and ( <= ( + ( - 1 ) FV_undef77_0 ) 0 ) ( <= ( + UndefCntr0_CT ( * UndefCntr0_undef91 FV_undef91_0 ) ( * UndefCntr0_undef77 FV_undef77_0 ) ( * UndefCntr0_Pdolen^0 FV_Pdolen^0_0 ) ( * UndefCntr0_i^0 FV_i^0_0 ) ( * UndefCntr0_num^0 FV_num^0_0 ) ) 0 ) ) ( and ( <= ( + 2 ( * ( - 1 ) FV_undef77_1 ) ) 0 ) ( <= ( + UndefCntr1_CT ( * UndefCntr1_undef91 FV_undef91_1 ) ( * UndefCntr1_undef37 FV_undef37_1 ) ( * UndefCntr1_undef77 FV_undef77_1 ) ( * UndefCntr1_Pdolen^0 FV_Pdolen^0_1 ) ( * UndefCntr1_i^0 FV_i^0_1 ) ( * UndefCntr1_num^0 FV_num^0_1 ) ) 0 ) ) ) ) ) ) ))
(assert ( or ( = UndefCntr0_undef91 0 ) ( and ( and ( = UndefCntr0_Pdolen^0 0 ) ( = UndefCntr0_i^0 0 ) ( = UndefCntr0_num^0 0 ) ( = UndefCntr0_undef77 0 ) ) ( or ( and ( <= ( + 1 ( * ( - 1 ) FV_undef91_0 ) ) 0 ) ( <= ( + UndefCntr0_CT ( * UndefCntr0_undef91 FV_undef91_0 ) ( * UndefCntr0_undef77 FV_undef77_0 ) ( * UndefCntr0_Pdolen^0 FV_Pdolen^0_0 ) ( * UndefCntr0_i^0 FV_i^0_0 ) ( * UndefCntr0_num^0 FV_num^0_0 ) ) 0 ) ) ( and ( and ( = UndefCntr0_undef91 UndefCntr1_undef91 ) ( = UndefCntr0_CT UndefCntr1_CT ) ) ( or ( and ( <= ( + 1 ( * ( - 1 ) FV_undef91_0 ) ) 0 ) ( <= ( + UndefCntr0_CT ( * UndefCntr0_undef91 FV_undef91_0 ) ( * UndefCntr0_undef77 FV_undef77_0 ) ( * UndefCntr0_Pdolen^0 FV_Pdolen^0_0 ) ( * UndefCntr0_i^0 FV_i^0_0 ) ( * UndefCntr0_num^0 FV_num^0_0 ) ) 0 ) ) ( and ( <= ( + 1 ( * ( - 1 ) FV_undef91_1 ) ) 0 ) ( <= ( + UndefCntr1_CT ( * UndefCntr1_undef91 FV_undef91_1 ) ( * UndefCntr1_undef37 FV_undef37_1 ) ( * UndefCntr1_undef77 FV_undef77_1 ) ( * UndefCntr1_Pdolen^0 FV_Pdolen^0_1 ) ( * UndefCntr1_i^0 FV_i^0_1 ) ( * UndefCntr1_num^0 FV_num^0_1 ) ) 0 ) ) ) ) ) ) ))
(assert ( or ( = UndefCntr1_undef37 0 ) ( and ( and ( = UndefCntr1_Pdolen^0 0 ) ( = UndefCntr1_i^0 0 ) ( = UndefCntr1_num^0 0 ) ( = UndefCntr1_undef77 0 ) ( = UndefCntr1_undef91 0 ) ) ( or ( and ( <= ( + 2 ( * ( - 1 ) FV_undef37_1 ) ) 0 ) ( <= ( + UndefCntr1_CT ( * UndefCntr1_undef91 FV_undef91_1 ) ( * UndefCntr1_undef37 FV_undef37_1 ) ( * UndefCntr1_undef77 FV_undef77_1 ) ( * UndefCntr1_Pdolen^0 FV_Pdolen^0_1 ) ( * UndefCntr1_i^0 FV_i^0_1 ) ( * UndefCntr1_num^0 FV_num^0_1 ) ) 0 ) ) ( and ( <= ( + 2 ( * ( - 1 ) FV_undef37_1 ) ) 0 ) ( <= ( + UndefCntr1_CT ( * UndefCntr1_undef91 FV_undef91_1 ) ( * UndefCntr1_undef37 FV_undef37_1 ) ( * UndefCntr1_undef77 FV_undef77_1 ) ( * UndefCntr1_Pdolen^0 FV_Pdolen^0_1 ) ( * UndefCntr1_i^0 FV_i^0_1 ) ( * UndefCntr1_num^0 FV_num^0_1 ) ) 0 ) ) ) ) ))
(assert ( or ( = UndefCntr1_undef77 0 ) ( and ( and ( = UndefCntr1_Pdolen^0 0 ) ( = UndefCntr1_i^0 0 ) ( = UndefCntr1_num^0 0 ) ( = UndefCntr1_undef37 0 ) ( = UndefCntr1_undef91 0 ) ) ( or ( and ( <= ( + 2 ( * ( - 1 ) FV_undef77_1 ) ) 0 ) ( <= ( + UndefCntr1_CT ( * UndefCntr1_undef91 FV_undef91_1 ) ( * UndefCntr1_undef37 FV_undef37_1 ) ( * UndefCntr1_undef77 FV_undef77_1 ) ( * UndefCntr1_Pdolen^0 FV_Pdolen^0_1 ) ( * UndefCntr1_i^0 FV_i^0_1 ) ( * UndefCntr1_num^0 FV_num^0_1 ) ) 0 ) ) ( and ( and ( = UndefCntr0_undef77 UndefCntr1_undef77 ) ( = UndefCntr0_CT UndefCntr1_CT ) ) ( or ( and ( <= ( + ( - 1 ) FV_undef77_0 ) 0 ) ( <= ( + UndefCntr0_CT ( * UndefCntr0_undef91 FV_undef91_0 ) ( * UndefCntr0_undef77 FV_undef77_0 ) ( * UndefCntr0_Pdolen^0 FV_Pdolen^0_0 ) ( * UndefCntr0_i^0 FV_i^0_0 ) ( * UndefCntr0_num^0 FV_num^0_0 ) ) 0 ) ) ( and ( <= ( + 2 ( * ( - 1 ) FV_undef77_1 ) ) 0 ) ( <= ( + UndefCntr1_CT ( * UndefCntr1_undef91 FV_undef91_1 ) ( * UndefCntr1_undef37 FV_undef37_1 ) ( * UndefCntr1_undef77 FV_undef77_1 ) ( * UndefCntr1_Pdolen^0 FV_Pdolen^0_1 ) ( * UndefCntr1_i^0 FV_i^0_1 ) ( * UndefCntr1_num^0 FV_num^0_1 ) ) 0 ) ) ) ) ) ) ))
(assert ( or ( = UndefCntr1_undef91 0 ) ( and ( and ( = UndefCntr1_Pdolen^0 0 ) ( = UndefCntr1_i^0 0 ) ( = UndefCntr1_num^0 0 ) ( = UndefCntr1_undef37 0 ) ( = UndefCntr1_undef77 0 ) ) ( or ( and ( <= ( + 1 ( * ( - 1 ) FV_undef91_1 ) ) 0 ) ( <= ( + UndefCntr1_CT ( * UndefCntr1_undef91 FV_undef91_1 ) ( * UndefCntr1_undef37 FV_undef37_1 ) ( * UndefCntr1_undef77 FV_undef77_1 ) ( * UndefCntr1_Pdolen^0 FV_Pdolen^0_1 ) ( * UndefCntr1_i^0 FV_i^0_1 ) ( * UndefCntr1_num^0 FV_num^0_1 ) ) 0 ) ) ( and ( and ( = UndefCntr0_undef91 UndefCntr1_undef91 ) ( = UndefCntr0_CT UndefCntr1_CT ) ) ( or ( and ( <= ( + 1 ( * ( - 1 ) FV_undef91_0 ) ) 0 ) ( <= ( + UndefCntr0_CT ( * UndefCntr0_undef91 FV_undef91_0 ) ( * UndefCntr0_undef77 FV_undef77_0 ) ( * UndefCntr0_Pdolen^0 FV_Pdolen^0_0 ) ( * UndefCntr0_i^0 FV_i^0_0 ) ( * UndefCntr0_num^0 FV_num^0_0 ) ) 0 ) ) ( and ( <= ( + 1 ( * ( - 1 ) FV_undef91_1 ) ) 0 ) ( <= ( + UndefCntr1_CT ( * UndefCntr1_undef91 FV_undef91_1 ) ( * UndefCntr1_undef37 FV_undef37_1 ) ( * UndefCntr1_undef77 FV_undef77_1 ) ( * UndefCntr1_Pdolen^0 FV_Pdolen^0_1 ) ( * UndefCntr1_i^0 FV_i^0_1 ) ( * UndefCntr1_num^0 FV_num^0_1 ) ) 0 ) ) ) ) ) ) ))
(assert ( and ( >= lam11n0 0 ) ( >= lam11n1 0 ) ( >= lam11n2 0 ) ( >= lam11n3 0 ) ( > ( + ( * Nl3CT1 lam11n1 ) ( * Nl3CT2 lam11n2 ) ( * Nl3CT3 lam11n3 ) ( - 1 ) ) 0 ) ( = ( + ( * 1 lam11n0 ) ( * Nl3Pdolen^01 lam11n1 ) ( * Nl3Pdolen^02 lam11n2 ) ( * Nl3Pdolen^03 lam11n3 ) ) 0 ) ( = ( + ( * ( - 1 ) lam11n0 ) ( * Nl3i^01 lam11n1 ) ( * Nl3i^02 lam11n2 ) ( * Nl3i^03 lam11n3 ) ) 0 ) ( = ( + ( * Nl3num^01 lam11n1 ) ( * Nl3num^02 lam11n2 ) ( * Nl3num^03 lam11n3 ) ) 0 ) ))
(assert ( and ( and ( <= ( + Nl3CT1 ( * Nl3Pdolen^01 FV_Pdolen^0_3 ) ( * Nl3i^01 FV_i^0_3 ) ( * Nl3num^01 FV_num^0_3 ) ) 0 ) ( <= ( + Nl3CT2 ( * Nl3Pdolen^02 FV_Pdolen^0_3 ) ( * Nl3i^02 FV_i^0_3 ) ( * Nl3num^02 FV_num^0_3 ) ) 0 ) ( <= ( + Nl3CT3 ( * Nl3Pdolen^03 FV_Pdolen^0_3 ) ( * Nl3i^03 FV_i^0_3 ) ( * Nl3num^03 FV_num^0_3 ) ) 0 ) ) ( or ( and ( <= ( + 1 ( * ( - 1 ) FV_Pdolen^0_3 ) FV_i^0_3 ) 0 ) ( <= ( + 1 ( * ( - 1 ) FV_undef91_3 ) ) 0 ) ( <= ( + ( - 1 ) FV_undef77_3 ) 0 ) ) ( and ( <= ( + 1 ( * ( - 1 ) FV_Pdolen^0_3 ) FV_i^0_3 ) 0 ) ( <= ( + 1 ( * ( - 1 ) FV_undef91_3 ) ) 0 ) ( <= ( + 2 ( * ( - 1 ) FV_undef37_3 ) ) 0 ) ( <= ( + 2 ( * ( - 1 ) FV_undef77_3 ) ) 0 ) ) ) ))
(check-sat)
(exit)
